c CNF file corresponding to a (partial) station packing problem.
p cnf 1240 243
1 2 3 4 5 6 7 8 9 10 11 12 13 14 0
-1 -2 0
-1 -3 0
-1 -4 0
-1 -5 0
-1 -6 0
-1 -7 0
-1 -8 0
-1 -9 0
-1 -10 0
-1 -11 0
-1 -12 0
-1 -13 0
-1 -14 0
-2 -3 0
-2 -4 0
-2 -5 0
-2 -6 0
-2 -7 0
-2 -8 0
-2 -9 0
-2 -10 0
-2 -11 0
-2 -12 0
-2 -13 0
-2 -14 0
-3 -4 0
-3 -5 0
-3 -6 0
-3 -7 0
-3 -8 0
-3 -9 0
-3 -10 0
-3 -11 0
-3 -12 0
-3 -13 0
-3 -14 0
-4 -5 0
-4 -6 0
-4 -7 0
-4 -8 0
-4 -9 0
-4 -10 0
-4 -11 0
-4 -12 0
-4 -13 0
-4 -14 0
-5 -6 0
-5 -7 0
-5 -8 0
-5 -9 0
-5 -10 0
-5 -11 0
-5 -12 0
-5 -13 0
-5 -14 0
-6 -7 0
-6 -8 0
-6 -9 0
-6 -10 0
-6 -11 0
-6 -12 0
-6 -13 0
-6 -14 0
-7 -8 0
-7 -9 0
-7 -10 0
-7 -11 0
-7 -12 0
-7 -13 0
-7 -14 0
-8 -9 0
-8 -10 0
-8 -11 0
-8 -12 0
-8 -13 0
-8 -14 0
-9 -10 0
-9 -11 0
-9 -12 0
-9 -13 0
-9 -14 0
-10 -11 0
-10 -12 0
-10 -13 0
-10 -14 0
-11 -12 0
-11 -13 0
-11 -14 0
-12 -13 0
-12 -14 0
-13 -14 0
-1236 -10 0
-1 -1226 0
-9 -1235 0
-1232 -6 0
-14 -1240 0
-4 -1230 0
-1239 -13 0
-8 -1234 0
-2 -1227 0
-12 -1238 0
-7 -1233 0
-1231 -5 0
-1237 -11 0
-1228 -3 0
1224 1225 1226 1227 1228 1229 1230 1231 1232 1233 1234 1235 1236 1237 1238 1239 1240 0
-1224 -1225 0
-1224 -1226 0
-1224 -1227 0
-1224 -1228 0
-1224 -1229 0
-1224 -1230 0
-1224 -1231 0
-1224 -1232 0
-1224 -1233 0
-1224 -1234 0
-1224 -1235 0
-1224 -1236 0
-1224 -1237 0
-1224 -1238 0
-1224 -1239 0
-1224 -1240 0
-1225 -1226 0
-1225 -1227 0
-1225 -1228 0
-1225 -1229 0
-1225 -1230 0
-1225 -1231 0
-1225 -1232 0
-1225 -1233 0
-1225 -1234 0
-1225 -1235 0
-1225 -1236 0
-1225 -1237 0
-1225 -1238 0
-1225 -1239 0
-1225 -1240 0
-1226 -1227 0
-1226 -1228 0
-1226 -1229 0
-1226 -1230 0
-1226 -1231 0
-1226 -1232 0
-1226 -1233 0
-1226 -1234 0
-1226 -1235 0
-1226 -1236 0
-1226 -1237 0
-1226 -1238 0
-1226 -1239 0
-1226 -1240 0
-1227 -1228 0
-1227 -1229 0
-1227 -1230 0
-1227 -1231 0
-1227 -1232 0
-1227 -1233 0
-1227 -1234 0
-1227 -1235 0
-1227 -1236 0
-1227 -1237 0
-1227 -1238 0
-1227 -1239 0
-1227 -1240 0
-1228 -1229 0
-1228 -1230 0
-1228 -1231 0
-1228 -1232 0
-1228 -1233 0
-1228 -1234 0
-1228 -1235 0
-1228 -1236 0
-1228 -1237 0
-1228 -1238 0
-1228 -1239 0
-1228 -1240 0
-1229 -1230 0
-1229 -1231 0
-1229 -1232 0
-1229 -1233 0
-1229 -1234 0
-1229 -1235 0
-1229 -1236 0
-1229 -1237 0
-1229 -1238 0
-1229 -1239 0
-1229 -1240 0
-1230 -1231 0
-1230 -1232 0
-1230 -1233 0
-1230 -1234 0
-1230 -1235 0
-1230 -1236 0
-1230 -1237 0
-1230 -1238 0
-1230 -1239 0
-1230 -1240 0
-1231 -1232 0
-1231 -1233 0
-1231 -1234 0
-1231 -1235 0
-1231 -1236 0
-1231 -1237 0
-1231 -1238 0
-1231 -1239 0
-1231 -1240 0
-1232 -1233 0
-1232 -1234 0
-1232 -1235 0
-1232 -1236 0
-1232 -1237 0
-1232 -1238 0
-1232 -1239 0
-1232 -1240 0
-1233 -1234 0
-1233 -1235 0
-1233 -1236 0
-1233 -1237 0
-1233 -1238 0
-1233 -1239 0
-1233 -1240 0
-1234 -1235 0
-1234 -1236 0
-1234 -1237 0
-1234 -1238 0
-1234 -1239 0
-1234 -1240 0
-1235 -1236 0
-1235 -1237 0
-1235 -1238 0
-1235 -1239 0
-1235 -1240 0
-1236 -1237 0
-1236 -1238 0
-1236 -1239 0
-1236 -1240 0
-1237 -1238 0
-1237 -1239 0
-1237 -1240 0
-1238 -1239 0
-1238 -1240 0
-1239 -1240 0
